proyfinal/src/viki/013/andrea/andrea-localstore/experimentInOfficeAgust.take6/worker_8/0f33c350-63f0-4240-8e73-d79ac1bcb1aa.als.cnf.out
Reading from standard input... Use '--help' for help.
============================[ Problem Statistics ]=============================
|                                                                             |
|  Number of variables:         87638                                         |
|  Number of clauses:          161767                                         |
|  Parse time:                   0.04 s                                       |
|                                                                             |
============================[ Search Statistics ]==============================
| Conflicts |          ORIGINAL         |          LEARNT          | Progress |
|           |    Vars  Clauses Literals |    Limit  Clauses Lit/Cl |          |
===============================================================================
|       100 |   63785   110368   275897 |    40468       98     49 | 27.218 % |
|       250 |   63784   110184   275475 |    44515      246     74 | 27.219 % |
|       475 |   63784   110140   275385 |    48966      470     96 | 27.219 % |
|       812 |   63736   110062   275204 |    53863      805    118 | 27.274 % |
|      1318 |   63735   109946   274939 |    59249     1310    106 | 27.275 % |
|      2077 |   63691   109761   274515 |    65174     2066    104 | 27.325 % |
|      3216 |   63573   109311   273429 |    71692     2979     96 | 27.460 % |
|      4924 |   63536   109165   273070 |    78861     4685     96 | 27.502 % |
|      7486 |   63536   109165   273070 |    86747     7247     92 | 27.502 % |
|     11330 |   63468   108889   272420 |    95422    11087     93 | 27.579 % |
|     17096 |   63398   108599   271749 |   104964    15912     89 | 27.659 % |
===============================================================================
restarts              : 63
conflicts             : 18101          (5346 /sec)
decisions             : 59136          (0.00 % random) (17465 /sec)
propagations          : 27822456       (8217058 /sec)
conflict literals     : 1564447        (57.28 % deleted)
Memory used           : 42.20 MB
CPU time              : 3.38594 s

INDETERMINATE
